p cnf 779 2557
-1 -3 51 0
1 -3 -51 0
-1 3 -51 0
1 3 51 0
4 5 52 0
-4 5 -52 0
4 -5 -52 0
-4 -5 52 0
-7 -9 53 0
7 -9 -53 0
-7 9 -53 0
7 9 53 0
-10 -15 54 0
10 -15 -54 0
-10 15 -54 0
10 15 54 0
16 -18 55 0
-16 -18 -55 0
16 18 -55 0
-16 18 55 0
21 22 56 0
-21 22 -56 0
21 -22 -56 0
-21 -22 56 0
23 25 57 0
-23 25 -57 0
23 -25 -57 0
-23 -25 57 0
-28 -29 58 0
28 -29 -58 0
-28 29 -58 0
28 29 58 0
30 -31 59 0
-30 -31 -59 0
30 31 -59 0
-30 31 59 0
33 34 60 0
-33 34 -60 0
33 -34 -60 0
-33 -34 60 0
-35 -36 61 0
35 -36 -61 0
-35 36 -61 0
35 36 61 0
-39 40 62 0
39 40 -62 0
-39 -40 -62 0
39 -40 62 0
-41 44 63 0
41 44 -63 0
-41 -44 -63 0
41 -44 63 0
46 -48 64 0
-46 -48 -64 0
46 48 -64 0
-46 48 64 0
50 -51 65 0
-50 -51 -65 0
50 51 -65 0
-50 51 65 0
52 -53 66 0
-52 -53 -66 0
52 53 -66 0
-52 53 66 0
54 -55 67 0
-54 -55 -67 0
54 55 -67 0
-54 55 67 0
56 -57 68 0
-56 -57 -68 0
56 57 -68 0
-56 57 68 0
58 -59 69 0
-58 -59 -69 0
58 59 -69 0
-58 59 69 0
60 -61 70 0
-60 -61 -70 0
60 61 -70 0
-60 61 70 0
62 -63 71 0
-62 -63 -71 0
62 63 -71 0
-62 63 71 0
64 -65 72 0
-64 -65 -72 0
64 65 -72 0
-64 65 72 0
66 -67 73 0
-66 -67 -73 0
66 67 -73 0
-66 67 73 0
68 -69 74 0
-68 -69 -74 0
68 69 -74 0
-68 69 74 0
70 -71 75 0
-70 -71 -75 0
70 71 -75 0
-70 71 75 0
72 -73 76 0
-72 -73 -76 0
72 73 -76 0
-72 73 76 0
74 -75 77 0
-74 -75 -77 0
74 75 -77 0
-74 75 77 0
76 77 0
-76 -77 0
2 -3 78 0
-2 -3 -78 0
2 3 -78 0
-2 3 78 0
4 6 79 0
-4 6 -79 0
4 -6 -79 0
-4 -6 79 0
-9 -11 80 0
9 -11 -80 0
-9 11 -80 0
9 11 80 0
13 16 81 0
-13 16 -81 0
13 -16 -81 0
-13 -16 81 0
17 18 82 0
-17 18 -82 0
17 -18 -82 0
-17 -18 82 0
-19 -20 83 0
19 -20 -83 0
-19 20 -83 0
19 20 83 0
22 -23 84 0
-22 -23 -84 0
22 23 -84 0
-22 23 84 0
-24 26 85 0
24 26 -85 0
-24 -26 -85 0
24 -26 85 0
28 30 86 0
-28 30 -86 0
28 -30 -86 0
-28 -30 86 0
-31 -32 87 0
31 -32 -87 0
-31 32 -87 0
31 32 87 0
-33 -37 88 0
33 -37 -88 0
-33 37 -88 0
33 37 88 0
-44 45 89 0
44 45 -89 0
-44 -45 -89 0
44 -45 89 0
46 50 90 0
-46 50 -90 0
46 -50 -90 0
-46 -50 90 0
78 -79 91 0
-78 -79 -91 0
78 79 -91 0
-78 79 91 0
80 -81 92 0
-80 -81 -92 0
80 81 -92 0
-80 81 92 0
82 -83 93 0
-82 -83 -93 0
82 83 -93 0
-82 83 93 0
84 -85 94 0
-84 -85 -94 0
84 85 -94 0
-84 85 94 0
86 -87 95 0
-86 -87 -95 0
86 87 -95 0
-86 87 95 0
88 -89 96 0
-88 -89 -96 0
88 89 -96 0
-88 89 96 0
90 -91 97 0
-90 -91 -97 0
90 91 -97 0
-90 91 97 0
92 -93 98 0
-92 -93 -98 0
92 93 -98 0
-92 93 98 0
94 -95 99 0
-94 -95 -99 0
94 95 -99 0
-94 95 99 0
96 -97 100 0
-96 -97 -100 0
96 97 -100 0
-96 97 100 0
98 -99 101 0
-98 -99 -101 0
98 99 -101 0
-98 99 101 0
100 101 0
-100 -101 0
2 -3 102 0
-2 -3 -102 0
2 3 -102 0
-2 3 102 0
4 -5 103 0
-4 -5 -103 0
4 5 -103 0
-4 5 103 0
6 7 104 0
-6 7 -104 0
6 -7 -104 0
-6 -7 104 0
9 10 105 0
-9 10 -105 0
9 -10 -105 0
-9 -10 105 0
11 13 106 0
-11 13 -106 0
11 -13 -106 0
-11 -13 106 0
17 -18 107 0
-17 -18 -107 0
17 18 -107 0
-17 18 107 0
-21 27 108 0
21 27 -108 0
-21 -27 -108 0
21 -27 108 0
-28 -29 109 0
28 -29 -109 0
-28 29 -109 0
28 29 109 0
30 31 110 0
-30 31 -110 0
30 -31 -110 0
-30 -31 110 0
32 -33 111 0
-32 -33 -111 0
32 33 -111 0
-32 33 111 0
35 37 112 0
-35 37 -112 0
35 -37 -112 0
-35 -37 112 0
41 -42 113 0
-41 -42 -113 0
41 42 -113 0
-41 42 113 0
43 -45 114 0
-43 -45 -114 0
43 45 -114 0
-43 45 114 0
-47 48 115 0
47 48 -115 0
-47 -48 -115 0
47 -48 115 0
102 -103 116 0
-102 -103 -116 0
102 103 -116 0
-102 103 116 0
104 -105 117 0
-104 -105 -117 0
104 105 -117 0
-104 105 117 0
106 -107 118 0
-106 -107 -118 0
106 107 -118 0
-106 107 118 0
108 -109 119 0
-108 -109 -119 0
108 109 -119 0
-108 109 119 0
110 -111 120 0
-110 -111 -120 0
110 111 -120 0
-110 111 120 0
112 -113 121 0
-112 -113 -121 0
112 113 -121 0
-112 113 121 0
114 -115 122 0
-114 -115 -122 0
114 115 -122 0
-114 115 122 0
116 -117 123 0
-116 -117 -123 0
116 117 -123 0
-116 117 123 0
118 -119 124 0
-118 -119 -124 0
118 119 -124 0
-118 119 124 0
120 -121 125 0
-120 -121 -125 0
120 121 -125 0
-120 121 125 0
122 -123 126 0
-122 -123 -126 0
122 123 -126 0
-122 123 126 0
124 -125 127 0
-124 -125 -127 0
124 125 -127 0
-124 125 127 0
126 127 0
-126 -127 0
-1 2 128 0
1 2 -128 0
-1 -2 -128 0
1 -2 128 0
-3 -4 129 0
3 -4 -129 0
-3 4 -129 0
3 4 129 0
-7 -9 130 0
7 -9 -130 0
-7 9 -130 0
7 9 130 0
11 13 131 0
-11 13 -131 0
11 -13 -131 0
-11 -13 131 0
16 17 132 0
-16 17 -132 0
16 -17 -132 0
-16 -17 132 0
18 20 133 0
-18 20 -133 0
18 -20 -133 0
-18 -20 133 0
-21 23 134 0
21 23 -134 0
-21 -23 -134 0
21 -23 134 0
24 -25 135 0
-24 -25 -135 0
24 25 -135 0
-24 25 135 0
-26 29 136 0
26 29 -136 0
-26 -29 -136 0
26 -29 136 0
-30 -33 137 0
30 -33 -137 0
-30 33 -137 0
30 33 137 0
-34 -35 138 0
34 -35 -138 0
-34 35 -138 0
34 35 138 0
-36 -37 139 0
36 -37 -139 0
-36 37 -139 0
36 37 139 0
38 -39 140 0
-38 -39 -140 0
38 39 -140 0
-38 39 140 0
-40 42 141 0
40 42 -141 0
-40 -42 -141 0
40 -42 141 0
44 -46 142 0
-44 -46 -142 0
44 46 -142 0
-44 46 142 0
127 -128 143 0
-127 -128 -143 0
127 128 -143 0
-127 128 143 0
129 -130 144 0
-129 -130 -144 0
129 130 -144 0
-129 130 144 0
131 -132 145 0
-131 -132 -145 0
131 132 -145 0
-131 132 145 0
133 -134 146 0
-133 -134 -146 0
133 134 -146 0
-133 134 146 0
135 -136 147 0
-135 -136 -147 0
135 136 -147 0
-135 136 147 0
137 -138 148 0
-137 -138 -148 0
137 138 -148 0
-137 138 148 0
139 -140 149 0
-139 -140 -149 0
139 140 -149 0
-139 140 149 0
141 -142 150 0
-141 -142 -150 0
141 142 -150 0
-141 142 150 0
143 -144 151 0
-143 -144 -151 0
143 144 -151 0
-143 144 151 0
145 -146 152 0
-145 -146 -152 0
145 146 -152 0
-145 146 152 0
147 -148 153 0
-147 -148 -153 0
147 148 -153 0
-147 148 153 0
149 -150 154 0
-149 -150 -154 0
149 150 -154 0
-149 150 154 0
151 -152 155 0
-151 -152 -155 0
151 152 -155 0
-151 152 155 0
153 -154 156 0
-153 -154 -156 0
153 154 -156 0
-153 154 156 0
155 156 0
-155 -156 0
2 -4 157 0
-2 -4 -157 0
2 4 -157 0
-2 4 157 0
6 -8 158 0
-6 -8 -158 0
6 8 -158 0
-6 8 158 0
9 10 159 0
-9 10 -159 0
9 -10 -159 0
-9 -10 159 0
11 24 160 0
-11 24 -160 0
11 -24 -160 0
-11 -24 160 0
25 26 161 0
-25 26 -161 0
25 -26 -161 0
-25 -26 161 0
-29 30 162 0
29 30 -162 0
-29 -30 -162 0
29 -30 162 0
31 32 163 0
-31 32 -163 0
31 -32 -163 0
-31 -32 163 0
-33 34 164 0
33 34 -164 0
-33 -34 -164 0
33 -34 164 0
36 37 165 0
-36 37 -165 0
36 -37 -165 0
-36 -37 165 0
38 -39 166 0
-38 -39 -166 0
38 39 -166 0
-38 39 166 0
42 45 167 0
-42 45 -167 0
42 -45 -167 0
-42 -45 167 0
46 47 168 0
-46 47 -168 0
46 -47 -168 0
-46 -47 168 0
-49 -50 169 0
49 -50 -169 0
-49 50 -169 0
49 50 169 0
157 -158 170 0
-157 -158 -170 0
157 158 -170 0
-157 158 170 0
159 -160 171 0
-159 -160 -171 0
159 160 -171 0
-159 160 171 0
161 -162 172 0
-161 -162 -172 0
161 162 -172 0
-161 162 172 0
163 -164 173 0
-163 -164 -173 0
163 164 -173 0
-163 164 173 0
165 -166 174 0
-165 -166 -174 0
165 166 -174 0
-165 166 174 0
167 -168 175 0
-167 -168 -175 0
167 168 -175 0
-167 168 175 0
169 -170 176 0
-169 -170 -176 0
169 170 -176 0
-169 170 176 0
171 -172 177 0
-171 -172 -177 0
171 172 -177 0
-171 172 177 0
173 -174 178 0
-173 -174 -178 0
173 174 -178 0
-173 174 178 0
175 -176 179 0
-175 -176 -179 0
175 176 -179 0
-175 176 179 0
177 -178 180 0
-177 -178 -180 0
177 178 -180 0
-177 178 180 0
179 180 0
-179 -180 0
-3 4 181 0
3 4 -181 0
-3 -4 -181 0
3 -4 181 0
-5 -8 182 0
5 -8 -182 0
-5 8 -182 0
5 8 182 0
10 11 183 0
-10 11 -183 0
10 -11 -183 0
-10 -11 183 0
-12 13 184 0
12 13 -184 0
-12 -13 -184 0
12 -13 184 0
-19 -21 185 0
19 -21 -185 0
-19 21 -185 0
19 21 185 0
22 -23 186 0
-22 -23 -186 0
22 23 -186 0
-22 23 186 0
-24 -27 187 0
24 -27 -187 0
-24 27 -187 0
24 27 187 0
-30 31 188 0
30 31 -188 0
-30 -31 -188 0
30 -31 188 0
32 -33 189 0
-32 -33 -189 0
32 33 -189 0
-32 33 189 0
-34 -36 190 0
34 -36 -190 0
-34 36 -190 0
34 36 190 0
38 40 191 0
-38 40 -191 0
38 -40 -191 0
-38 -40 191 0
41 42 192 0
-41 42 -192 0
41 -42 -192 0
-41 -42 192 0
-44 45 193 0
44 45 -193 0
-44 -45 -193 0
44 -45 193 0
46 -49 194 0
-46 -49 -194 0
46 49 -194 0
-46 49 194 0
180 -181 195 0
-180 -181 -195 0
180 181 -195 0
-180 181 195 0
182 -183 196 0
-182 -183 -196 0
182 183 -196 0
-182 183 196 0
184 -185 197 0
-184 -185 -197 0
184 185 -197 0
-184 185 197 0
186 -187 198 0
-186 -187 -198 0
186 187 -198 0
-186 187 198 0
188 -189 199 0
-188 -189 -199 0
188 189 -199 0
-188 189 199 0
190 -191 200 0
-190 -191 -200 0
190 191 -200 0
-190 191 200 0
192 -193 201 0
-192 -193 -201 0
192 193 -201 0
-192 193 201 0
194 -195 202 0
-194 -195 -202 0
194 195 -202 0
-194 195 202 0
196 -197 203 0
-196 -197 -203 0
196 197 -203 0
-196 197 203 0
198 -199 204 0
-198 -199 -204 0
198 199 -204 0
-198 199 204 0
200 -201 205 0
-200 -201 -205 0
200 201 -205 0
-200 201 205 0
202 -203 206 0
-202 -203 -206 0
202 203 -206 0
-202 203 206 0
204 -205 207 0
-204 -205 -207 0
204 205 -207 0
-204 205 207 0
206 207 0
-206 -207 0
3 -5 208 0
-3 -5 -208 0
3 5 -208 0
-3 5 208 0
6 -7 209 0
-6 -7 -209 0
6 7 -209 0
-6 7 209 0
12 14 210 0
-12 14 -210 0
12 -14 -210 0
-12 -14 210 0
-15 -16 211 0
15 -16 -211 0
-15 16 -211 0
15 16 211 0
18 -19 212 0
-18 -19 -212 0
18 19 -212 0
-18 19 212 0
-20 22 213 0
20 22 -213 0
-20 -22 -213 0
20 -22 213 0
23 -24 214 0
-23 -24 -214 0
23 24 -214 0
-23 24 214 0
25 30 215 0
-25 30 -215 0
25 -30 -215 0
-25 -30 215 0
32 33 216 0
-32 33 -216 0
32 -33 -216 0
-32 -33 216 0
-35 37 217 0
35 37 -217 0
-35 -37 -217 0
35 -37 217 0
38 39 218 0
-38 39 -218 0
38 -39 -218 0
-38 -39 218 0
-42 -43 219 0
42 -43 -219 0
-42 43 -219 0
42 43 219 0
44 -45 220 0
-44 -45 -220 0
44 45 -220 0
-44 45 220 0
-46 47 221 0
46 47 -221 0
-46 -47 -221 0
46 -47 221 0
207 -208 222 0
-207 -208 -222 0
207 208 -222 0
-207 208 222 0
209 -210 223 0
-209 -210 -223 0
209 210 -223 0
-209 210 223 0
211 -212 224 0
-211 -212 -224 0
211 212 -224 0
-211 212 224 0
213 -214 225 0
-213 -214 -225 0
213 214 -225 0
-213 214 225 0
215 -216 226 0
-215 -216 -226 0
215 216 -226 0
-215 216 226 0
217 -218 227 0
-217 -218 -227 0
217 218 -227 0
-217 218 227 0
219 -220 228 0
-219 -220 -228 0
219 220 -228 0
-219 220 228 0
221 -222 229 0
-221 -222 -229 0
221 222 -229 0
-221 222 229 0
223 -224 230 0
-223 -224 -230 0
223 224 -230 0
-223 224 230 0
225 -226 231 0
-225 -226 -231 0
225 226 -231 0
-225 226 231 0
227 -228 232 0
-227 -228 -232 0
227 228 -232 0
-227 228 232 0
229 -230 233 0
-229 -230 -233 0
229 230 -233 0
-229 230 233 0
231 -232 234 0
-231 -232 -234 0
231 232 -234 0
-231 232 234 0
233 234 0
-233 -234 0
-1 -2 235 0
1 -2 -235 0
-1 2 -235 0
1 2 235 0
-5 6 236 0
5 6 -236 0
-5 -6 -236 0
5 -6 236 0
8 -9 237 0
-8 -9 -237 0
8 9 -237 0
-8 9 237 0
11 12 238 0
-11 12 -238 0
11 -12 -238 0
-11 -12 238 0
14 -15 239 0
-14 -15 -239 0
14 15 -239 0
-14 15 239 0
19 22 240 0
-19 22 -240 0
19 -22 -240 0
-19 -22 240 0
26 -27 241 0
-26 -27 -241 0
26 27 -241 0
-26 27 241 0
-28 29 242 0
28 29 -242 0
-28 -29 -242 0
28 -29 242 0
31 -34 243 0
-31 -34 -243 0
31 34 -243 0
-31 34 243 0
37 -39 244 0
-37 -39 -244 0
37 39 -244 0
-37 39 244 0
-40 42 245 0
40 42 -245 0
-40 -42 -245 0
40 -42 245 0
44 48 246 0
-44 48 -246 0
44 -48 -246 0
-44 -48 246 0
-49 50 247 0
49 50 -247 0
-49 -50 -247 0
49 -50 247 0
235 -236 248 0
-235 -236 -248 0
235 236 -248 0
-235 236 248 0
237 -238 249 0
-237 -238 -249 0
237 238 -249 0
-237 238 249 0
239 -240 250 0
-239 -240 -250 0
239 240 -250 0
-239 240 250 0
241 -242 251 0
-241 -242 -251 0
241 242 -251 0
-241 242 251 0
243 -244 252 0
-243 -244 -252 0
243 244 -252 0
-243 244 252 0
245 -246 253 0
-245 -246 -253 0
245 246 -253 0
-245 246 253 0
247 -248 254 0
-247 -248 -254 0
247 248 -254 0
-247 248 254 0
249 -250 255 0
-249 -250 -255 0
249 250 -255 0
-249 250 255 0
251 -252 256 0
-251 -252 -256 0
251 252 -256 0
-251 252 256 0
253 -254 257 0
-253 -254 -257 0
253 254 -257 0
-253 254 257 0
255 -256 258 0
-255 -256 -258 0
255 256 -258 0
-255 256 258 0
257 258 0
-257 -258 0
-1 2 259 0
1 2 -259 0
-1 -2 -259 0
1 -2 259 0
4 -5 260 0
-4 -5 -260 0
4 5 -260 0
-4 5 260 0
6 -11 261 0
-6 -11 -261 0
6 11 -261 0
-6 11 261 0
-12 13 262 0
12 13 -262 0
-12 -13 -262 0
12 -13 262 0
15 -17 263 0
-15 -17 -263 0
15 17 -263 0
-15 17 263 0
21 -22 264 0
-21 -22 -264 0
21 22 -264 0
-21 22 264 0
23 26 265 0
-23 26 -265 0
23 -26 -265 0
-23 -26 265 0
28 -29 266 0
-28 -29 -266 0
28 29 -266 0
-28 29 266 0
-30 31 267 0
30 31 -267 0
-30 -31 -267 0
30 -31 267 0
32 -34 268 0
-32 -34 -268 0
32 34 -268 0
-32 34 268 0
-35 39 269 0
35 39 -269 0
-35 -39 -269 0
35 -39 269 0
-42 -47 270 0
42 -47 -270 0
-42 47 -270 0
42 47 270 0
259 -260 271 0
-259 -260 -271 0
259 260 -271 0
-259 260 271 0
261 -262 272 0
-261 -262 -272 0
261 262 -272 0
-261 262 272 0
263 -264 273 0
-263 -264 -273 0
263 264 -273 0
-263 264 273 0
265 -266 274 0
-265 -266 -274 0
265 266 -274 0
-265 266 274 0
267 -268 275 0
-267 -268 -275 0
267 268 -275 0
-267 268 275 0
269 -270 276 0
-269 -270 -276 0
269 270 -276 0
-269 270 276 0
271 -272 277 0
-271 -272 -277 0
271 272 -277 0
-271 272 277 0
273 -274 278 0
-273 -274 -278 0
273 274 -278 0
-273 274 278 0
275 -276 279 0
-275 -276 -279 0
275 276 -279 0
-275 276 279 0
-277 -278 279 0
277 -278 -279 0
-277 278 -279 0
277 278 279 0
1 2 280 0
-1 2 -280 0
1 -2 -280 0
-1 -2 280 0
4 6 281 0
-4 6 -281 0
4 -6 -281 0
-4 -6 281 0
10 -12 282 0
-10 -12 -282 0
10 12 -282 0
-10 12 282 0
13 14 283 0
-13 14 -283 0
13 -14 -283 0
-13 -14 283 0
-16 20 284 0
16 20 -284 0
-16 -20 -284 0
16 -20 284 0
27 -29 285 0
-27 -29 -285 0
27 29 -285 0
-27 29 285 0
-30 -34 286 0
30 -34 -286 0
-30 34 -286 0
30 34 286 0
-36 -39 287 0
36 -39 -287 0
-36 39 -287 0
36 39 287 0
-41 42 288 0
41 42 -288 0
-41 -42 -288 0
41 -42 288 0
-46 -47 289 0
46 -47 -289 0
-46 47 -289 0
46 47 289 0
-49 50 290 0
49 50 -290 0
-49 -50 -290 0
49 -50 290 0
280 -281 291 0
-280 -281 -291 0
280 281 -291 0
-280 281 291 0
282 -283 292 0
-282 -283 -292 0
282 283 -292 0
-282 283 292 0
284 -285 293 0
-284 -285 -293 0
284 285 -293 0
-284 285 293 0
286 -287 294 0
-286 -287 -294 0
286 287 -294 0
-286 287 294 0
288 -289 295 0
-288 -289 -295 0
288 289 -295 0
-288 289 295 0
290 -291 296 0
-290 -291 -296 0
290 291 -296 0
-290 291 296 0
292 -293 297 0
-292 -293 -297 0
292 293 -297 0
-292 293 297 0
294 -295 298 0
-294 -295 -298 0
294 295 -298 0
-294 295 298 0
-296 -297 298 0
296 -297 -298 0
-296 297 -298 0
296 297 298 0
-1 6 299 0
1 6 -299 0
-1 -6 -299 0
1 -6 299 0
7 -8 300 0
-7 -8 -300 0
7 8 -300 0
-7 8 300 0
-9 11 301 0
9 11 -301 0
-9 -11 -301 0
9 -11 301 0
12 -17 302 0
-12 -17 -302 0
12 17 -302 0
-12 17 302 0
18 -20 303 0
-18 -20 -303 0
18 20 -303 0
-18 20 303 0
21 -22 304 0
-21 -22 -304 0
21 22 -304 0
-21 22 304 0
-23 -24 305 0
23 -24 -305 0
-23 24 -305 0
23 24 305 0
28 -30 306 0
-28 -30 -306 0
28 30 -306 0
-28 30 306 0
32 33 307 0
-32 33 -307 0
32 -33 -307 0
-32 -33 307 0
34 36 308 0
-34 36 -308 0
34 -36 -308 0
-34 -36 308 0
37 -38 309 0
-37 -38 -309 0
37 38 -309 0
-37 38 309 0
-39 41 310 0
39 41 -310 0
-39 -41 -310 0
39 -41 310 0
-43 -45 311 0
43 -45 -311 0
-43 45 -311 0
43 45 311 0
298 -299 312 0
-298 -299 -312 0
298 299 -312 0
-298 299 312 0
300 -301 313 0
-300 -301 -313 0
300 301 -313 0
-300 301 313 0
302 -303 314 0
-302 -303 -314 0
302 303 -314 0
-302 303 314 0
304 -305 315 0
-304 -305 -315 0
304 305 -315 0
-304 305 315 0
306 -307 316 0
-306 -307 -316 0
306 307 -316 0
-306 307 316 0
308 -309 317 0
-308 -309 -317 0
308 309 -317 0
-308 309 317 0
310 -311 318 0
-310 -311 -318 0
310 311 -318 0
-310 311 318 0
312 -313 319 0
-312 -313 -319 0
312 313 -319 0
-312 313 319 0
314 -315 320 0
-314 -315 -320 0
314 315 -320 0
-314 315 320 0
316 -317 321 0
-316 -317 -321 0
316 317 -321 0
-316 317 321 0
318 -319 322 0
-318 -319 -322 0
318 319 -322 0
-318 319 322 0
320 -321 323 0
-320 -321 -323 0
320 321 -323 0
-320 321 323 0
322 323 0
-322 -323 0
-2 4 324 0
2 4 -324 0
-2 -4 -324 0
2 -4 324 0
5 7 325 0
-5 7 -325 0
5 -7 -325 0
-5 -7 325 0
11 13 326 0
-11 13 -326 0
11 -13 -326 0
-11 -13 326 0
-15 -20 327 0
15 -20 -327 0
-15 20 -327 0
15 20 327 0
-24 -25 328 0
24 -25 -328 0
-24 25 -328 0
24 25 328 0
-28 -29 329 0
28 -29 -329 0
-28 29 -329 0
28 29 329 0
30 -31 330 0
-30 -31 -330 0
30 31 -330 0
-30 31 330 0
-32 37 331 0
32 37 -331 0
-32 -37 -331 0
32 -37 331 0
43 -44 332 0
-43 -44 -332 0
43 44 -332 0
-43 44 332 0
-45 46 333 0
45 46 -333 0
-45 -46 -333 0
45 -46 333 0
47 49 334 0
-47 49 -334 0
47 -49 -334 0
-47 -49 334 0
324 -325 335 0
-324 -325 -335 0
324 325 -335 0
-324 325 335 0
326 -327 336 0
-326 -327 -336 0
326 327 -336 0
-326 327 336 0
328 -329 337 0
-328 -329 -337 0
328 329 -337 0
-328 329 337 0
330 -331 338 0
-330 -331 -338 0
330 331 -338 0
-330 331 338 0
332 -333 339 0
-332 -333 -339 0
332 333 -339 0
-332 333 339 0
334 -335 340 0
-334 -335 -340 0
334 335 -340 0
-334 335 340 0
336 -337 341 0
-336 -337 -341 0
336 337 -341 0
-336 337 341 0
338 -339 342 0
-338 -339 -342 0
338 339 -342 0
-338 339 342 0
-340 -341 342 0
340 -341 -342 0
-340 341 -342 0
340 341 342 0
2 3 343 0
-2 3 -343 0
2 -3 -343 0
-2 -3 343 0
-4 5 344 0
4 5 -344 0
-4 -5 -344 0
4 -5 344 0
8 10 345 0
-8 10 -345 0
8 -10 -345 0
-8 -10 345 0
-11 -12 346 0
11 -12 -346 0
-11 12 -346 0
11 12 346 0
14 -15 347 0
-14 -15 -347 0
14 15 -347 0
-14 15 347 0
-16 18 348 0
16 18 -348 0
-16 -18 -348 0
16 -18 348 0
19 20 349 0
-19 20 -349 0
19 -20 -349 0
-19 -20 349 0
21 -22 350 0
-21 -22 -350 0
21 22 -350 0
-21 22 350 0
24 -26 351 0
-24 -26 -351 0
24 26 -351 0
-24 26 351 0
-27 28 352 0
27 28 -352 0
-27 -28 -352 0
27 -28 352 0
32 -37 353 0
-32 -37 -353 0
32 37 -353 0
-32 37 353 0
39 41 354 0
-39 41 -354 0
39 -41 -354 0
-39 -41 354 0
46 -47 355 0
-46 -47 -355 0
46 47 -355 0
-46 47 355 0
342 -343 356 0
-342 -343 -356 0
342 343 -356 0
-342 343 356 0
344 -345 357 0
-344 -345 -357 0
344 345 -357 0
-344 345 357 0
346 -347 358 0
-346 -347 -358 0
346 347 -358 0
-346 347 358 0
348 -349 359 0
-348 -349 -359 0
348 349 -359 0
-348 349 359 0
350 -351 360 0
-350 -351 -360 0
350 351 -360 0
-350 351 360 0
352 -353 361 0
-352 -353 -361 0
352 353 -361 0
-352 353 361 0
354 -355 362 0
-354 -355 -362 0
354 355 -362 0
-354 355 362 0
356 -357 363 0
-356 -357 -363 0
356 357 -363 0
-356 357 363 0
358 -359 364 0
-358 -359 -364 0
358 359 -364 0
-358 359 364 0
360 -361 365 0
-360 -361 -365 0
360 361 -365 0
-360 361 365 0
362 -363 366 0
-362 -363 -366 0
362 363 -366 0
-362 363 366 0
364 -365 367 0
-364 -365 -367 0
364 365 -367 0
-364 365 367 0
366 367 0
-366 -367 0
-3 9 368 0
3 9 -368 0
-3 -9 -368 0
3 -9 368 0
-11 14 369 0
11 14 -369 0
-11 -14 -369 0
11 -14 369 0
15 16 370 0
-15 16 -370 0
15 -16 -370 0
-15 -16 370 0
18 21 371 0
-18 21 -371 0
18 -21 -371 0
-18 -21 371 0
-24 25 372 0
24 25 -372 0
-24 -25 -372 0
24 -25 372 0
27 28 373 0
-27 28 -373 0
27 -28 -373 0
-27 -28 373 0
-30 31 374 0
30 31 -374 0
-30 -31 -374 0
30 -31 374 0
-33 -36 375 0
33 -36 -375 0
-33 36 -375 0
33 36 375 0
-37 38 376 0
37 38 -376 0
-37 -38 -376 0
37 -38 376 0
39 40 377 0
-39 40 -377 0
39 -40 -377 0
-39 -40 377 0
-42 46 378 0
42 46 -378 0
-42 -46 -378 0
42 -46 378 0
-47 48 379 0
47 48 -379 0
-47 -48 -379 0
47 -48 379 0
49 -50 380 0
-49 -50 -380 0
49 50 -380 0
-49 50 380 0
368 -369 381 0
-368 -369 -381 0
368 369 -381 0
-368 369 381 0
370 -371 382 0
-370 -371 -382 0
370 371 -382 0
-370 371 382 0
372 -373 383 0
-372 -373 -383 0
372 373 -383 0
-372 373 383 0
374 -375 384 0
-374 -375 -384 0
374 375 -384 0
-374 375 384 0
376 -377 385 0
-376 -377 -385 0
376 377 -385 0
-376 377 385 0
378 -379 386 0
-378 -379 -386 0
378 379 -386 0
-378 379 386 0
380 -381 387 0
-380 -381 -387 0
380 381 -387 0
-380 381 387 0
382 -383 388 0
-382 -383 -388 0
382 383 -388 0
-382 383 388 0
384 -385 389 0
-384 -385 -389 0
384 385 -389 0
-384 385 389 0
386 -387 390 0
-386 -387 -390 0
386 387 -390 0
-386 387 390 0
388 -389 391 0
-388 -389 -391 0
388 389 -391 0
-388 389 391 0
390 391 0
-390 -391 0
-1 -3 392 0
1 -3 -392 0
-1 3 -392 0
1 3 392 0
-5 6 393 0
5 6 -393 0
-5 -6 -393 0
5 -6 393 0
7 -9 394 0
-7 -9 -394 0
7 9 -394 0
-7 9 394 0
10 -14 395 0
-10 -14 -395 0
10 14 -395 0
-10 14 395 0
-15 -22 396 0
15 -22 -396 0
-15 22 -396 0
15 22 396 0
23 -25 397 0
-23 -25 -397 0
23 25 -397 0
-23 25 397 0
26 27 398 0
-26 27 -398 0
26 -27 -398 0
-26 -27 398 0
28 -29 399 0
-28 -29 -399 0
28 29 -399 0
-28 29 399 0
32 -34 400 0
-32 -34 -400 0
32 34 -400 0
-32 34 400 0
-35 -37 401 0
35 -37 -401 0
-35 37 -401 0
35 37 401 0
38 -39 402 0
-38 -39 -402 0
38 39 -402 0
-38 39 402 0
-40 41 403 0
40 41 -403 0
-40 -41 -403 0
40 -41 403 0
-42 43 404 0
42 43 -404 0
-42 -43 -404 0
42 -43 404 0
391 -392 405 0
-391 -392 -405 0
391 392 -405 0
-391 392 405 0
393 -394 406 0
-393 -394 -406 0
393 394 -406 0
-393 394 406 0
395 -396 407 0
-395 -396 -407 0
395 396 -407 0
-395 396 407 0
397 -398 408 0
-397 -398 -408 0
397 398 -408 0
-397 398 408 0
399 -400 409 0
-399 -400 -409 0
399 400 -409 0
-399 400 409 0
401 -402 410 0
-401 -402 -410 0
401 402 -410 0
-401 402 410 0
403 -404 411 0
-403 -404 -411 0
403 404 -411 0
-403 404 411 0
405 -406 412 0
-405 -406 -412 0
405 406 -412 0
-405 406 412 0
407 -408 413 0
-407 -408 -413 0
407 408 -413 0
-407 408 413 0
409 -410 414 0
-409 -410 -414 0
409 410 -414 0
-409 410 414 0
411 -412 415 0
-411 -412 -415 0
411 412 -415 0
-411 412 415 0
413 -414 416 0
-413 -414 -416 0
413 414 -416 0
-413 414 416 0
415 416 0
-415 -416 0
-1 -2 417 0
1 -2 -417 0
-1 2 -417 0
1 2 417 0
-4 5 418 0
4 5 -418 0
-4 -5 -418 0
4 -5 418 0
-8 -10 419 0
8 -10 -419 0
-8 10 -419 0
8 10 419 0
-12 -15 420 0
12 -15 -420 0
-12 15 -420 0
12 15 420 0
-17 -20 421 0
17 -20 -421 0
-17 20 -421 0
17 20 421 0
-22 -24 422 0
22 -24 -422 0
-22 24 -422 0
22 24 422 0
-26 -29 423 0
26 -29 -423 0
-26 29 -423 0
26 29 423 0
31 35 424 0
-31 35 -424 0
31 -35 -424 0
-31 -35 424 0
39 44 425 0
-39 44 -425 0
39 -44 -425 0
-39 -44 425 0
-46 47 426 0
46 47 -426 0
-46 -47 -426 0
46 -47 426 0
416 -417 427 0
-416 -417 -427 0
416 417 -427 0
-416 417 427 0
418 -419 428 0
-418 -419 -428 0
418 419 -428 0
-418 419 428 0
420 -421 429 0
-420 -421 -429 0
420 421 -429 0
-420 421 429 0
422 -423 430 0
-422 -423 -430 0
422 423 -430 0
-422 423 430 0
424 -425 431 0
-424 -425 -431 0
424 425 -431 0
-424 425 431 0
426 -427 432 0
-426 -427 -432 0
426 427 -432 0
-426 427 432 0
428 -429 433 0
-428 -429 -433 0
428 429 -433 0
-428 429 433 0
430 -431 434 0
-430 -431 -434 0
430 431 -434 0
-430 431 434 0
-432 -433 434 0
432 -433 -434 0
-432 433 -434 0
432 433 434 0
1 4 435 0
-1 4 -435 0
1 -4 -435 0
-1 -4 435 0
-5 6 436 0
5 6 -436 0
-5 -6 -436 0
5 -6 436 0
11 -12 437 0
-11 -12 -437 0
11 12 -437 0
-11 12 437 0
-13 -14 438 0
13 -14 -438 0
-13 14 -438 0
13 14 438 0
15 17 439 0
-15 17 -439 0
15 -17 -439 0
-15 -17 439 0
20 -21 440 0
-20 -21 -440 0
20 21 -440 0
-20 21 440 0
-22 -28 441 0
22 -28 -441 0
-22 28 -441 0
22 28 441 0
-29 30 442 0
29 30 -442 0
-29 -30 -442 0
29 -30 442 0
-31 -32 443 0
31 -32 -443 0
-31 32 -443 0
31 32 443 0
33 34 444 0
-33 34 -444 0
33 -34 -444 0
-33 -34 444 0
40 -43 445 0
-40 -43 -445 0
40 43 -445 0
-40 43 445 0
45 -47 446 0
-45 -47 -446 0
45 47 -446 0
-45 47 446 0
434 -435 447 0
-434 -435 -447 0
434 435 -447 0
-434 435 447 0
436 -437 448 0
-436 -437 -448 0
436 437 -448 0
-436 437 448 0
438 -439 449 0
-438 -439 -449 0
438 439 -449 0
-438 439 449 0
440 -441 450 0
-440 -441 -450 0
440 441 -450 0
-440 441 450 0
442 -443 451 0
-442 -443 -451 0
442 443 -451 0
-442 443 451 0
444 -445 452 0
-444 -445 -452 0
444 445 -452 0
-444 445 452 0
446 -447 453 0
-446 -447 -453 0
446 447 -453 0
-446 447 453 0
448 -449 454 0
-448 -449 -454 0
448 449 -454 0
-448 449 454 0
450 -451 455 0
-450 -451 -455 0
450 451 -455 0
-450 451 455 0
452 -453 456 0
-452 -453 -456 0
452 453 -456 0
-452 453 456 0
454 -455 457 0
-454 -455 -457 0
454 455 -457 0
-454 455 457 0
456 457 0
-456 -457 0
2 3 458 0
-2 3 -458 0
2 -3 -458 0
-2 -3 458 0
-7 10 459 0
7 10 -459 0
-7 -10 -459 0
7 -10 459 0
11 -13 460 0
-11 -13 -460 0
11 13 -460 0
-11 13 460 0
-17 -21 461 0
17 -21 -461 0
-17 21 -461 0
17 21 461 0
-22 -23 462 0
22 -23 -462 0
-22 23 -462 0
22 23 462 0
-27 28 463 0
27 28 -463 0
-27 -28 -463 0
27 -28 463 0
29 31 464 0
-29 31 -464 0
29 -31 -464 0
-29 -31 464 0
32 38 465 0
-32 38 -465 0
32 -38 -465 0
-32 -38 465 0
39 40 466 0
-39 40 -466 0
39 -40 -466 0
-39 -40 466 0
42 43 467 0
-42 43 -467 0
42 -43 -467 0
-42 -43 467 0
44 46 468 0
-44 46 -468 0
44 -46 -468 0
-44 -46 468 0
457 -458 469 0
-457 -458 -469 0
457 458 -469 0
-457 458 469 0
459 -460 470 0
-459 -460 -470 0
459 460 -470 0
-459 460 470 0
461 -462 471 0
-461 -462 -471 0
461 462 -471 0
-461 462 471 0
463 -464 472 0
-463 -464 -472 0
463 464 -472 0
-463 464 472 0
465 -466 473 0
-465 -466 -473 0
465 466 -473 0
-465 466 473 0
467 -468 474 0
-467 -468 -474 0
467 468 -474 0
-467 468 474 0
469 -470 475 0
-469 -470 -475 0
469 470 -475 0
-469 470 475 0
471 -472 476 0
-471 -472 -476 0
471 472 -476 0
-471 472 476 0
473 -474 477 0
-473 -474 -477 0
473 474 -477 0
-473 474 477 0
-475 -476 477 0
475 -476 -477 0
-475 476 -477 0
475 476 477 0
3 4 478 0
-3 4 -478 0
3 -4 -478 0
-3 -4 478 0
-10 -11 479 0
10 -11 -479 0
-10 11 -479 0
10 11 479 0
-12 -13 480 0
12 -13 -480 0
-12 13 -480 0
12 13 480 0
-14 -16 481 0
14 -16 -481 0
-14 16 -481 0
14 16 481 0
-17 18 482 0
17 18 -482 0
-17 -18 -482 0
17 -18 482 0
23 -25 483 0
-23 -25 -483 0
23 25 -483 0
-23 25 483 0
26 30 484 0
-26 30 -484 0
26 -30 -484 0
-26 -30 484 0
-33 34 485 0
33 34 -485 0
-33 -34 -485 0
33 -34 485 0
35 -36 486 0
-35 -36 -486 0
35 36 -486 0
-35 36 486 0
37 -38 487 0
-37 -38 -487 0
37 38 -487 0
-37 38 487 0
-39 -41 488 0
39 -41 -488 0
-39 41 -488 0
39 41 488 0
45 48 489 0
-45 48 -489 0
45 -48 -489 0
-45 -48 489 0
477 -478 490 0
-477 -478 -490 0
477 478 -490 0
-477 478 490 0
479 -480 491 0
-479 -480 -491 0
479 480 -491 0
-479 480 491 0
481 -482 492 0
-481 -482 -492 0
481 482 -492 0
-481 482 492 0
483 -484 493 0
-483 -484 -493 0
483 484 -493 0
-483 484 493 0
485 -486 494 0
-485 -486 -494 0
485 486 -494 0
-485 486 494 0
487 -488 495 0
-487 -488 -495 0
487 488 -495 0
-487 488 495 0
489 -490 496 0
-489 -490 -496 0
489 490 -496 0
-489 490 496 0
491 -492 497 0
-491 -492 -497 0
491 492 -497 0
-491 492 497 0
493 -494 498 0
-493 -494 -498 0
493 494 -498 0
-493 494 498 0
495 -496 499 0
-495 -496 -499 0
495 496 -499 0
-495 496 499 0
497 -498 500 0
-497 -498 -500 0
497 498 -500 0
-497 498 500 0
499 500 0
-499 -500 0
4 -5 501 0
-4 -5 -501 0
4 5 -501 0
-4 5 501 0
-10 11 502 0
10 11 -502 0
-10 -11 -502 0
10 -11 502 0
13 -14 503 0
-13 -14 -503 0
13 14 -503 0
-13 14 503 0
-16 -17 504 0
16 -17 -504 0
-16 17 -504 0
16 17 504 0
22 23 505 0
-22 23 -505 0
22 -23 -505 0
-22 -23 505 0
-24 25 506 0
24 25 -506 0
-24 -25 -506 0
24 -25 506 0
26 -27 507 0
-26 -27 -507 0
26 27 -507 0
-26 27 507 0
-31 32 508 0
31 32 -508 0
-31 -32 -508 0
31 -32 508 0
-33 35 509 0
33 35 -509 0
-33 -35 -509 0
33 -35 509 0
37 -42 510 0
-37 -42 -510 0
37 42 -510 0
-37 42 510 0
-43 44 511 0
43 44 -511 0
-43 -44 -511 0
43 -44 511 0
45 -47 512 0
-45 -47 -512 0
45 47 -512 0
-45 47 512 0
501 -502 513 0
-501 -502 -513 0
501 502 -513 0
-501 502 513 0
503 -504 514 0
-503 -504 -514 0
503 504 -514 0
-503 504 514 0
505 -506 515 0
-505 -506 -515 0
505 506 -515 0
-505 506 515 0
507 -508 516 0
-507 -508 -516 0
507 508 -516 0
-507 508 516 0
509 -510 517 0
-509 -510 -517 0
509 510 -517 0
-509 510 517 0
511 -512 518 0
-511 -512 -518 0
511 512 -518 0
-511 512 518 0
513 -514 519 0
-513 -514 -519 0
513 514 -519 0
-513 514 519 0
515 -516 520 0
-515 -516 -520 0
515 516 -520 0
-515 516 520 0
517 -518 521 0
-517 -518 -521 0
517 518 -521 0
-517 518 521 0
-519 -520 521 0
519 -520 -521 0
-519 520 -521 0
519 520 521 0
-12 522 0
-24 522 0
-12 -24 523 0
-23 522 0
-12 -23 523 0
-24 -23 523 0
-12 -24 -23 524 0
-22 525 0
-21 525 0
-22 -21 526 0
-20 525 0
-22 -20 526 0
-21 -20 526 0
-22 -21 -20 527 0
-522 528 0
-523 529 0
-524 530 0
-525 528 0
-526 529 0
-527 530 0
-522 -525 529 0
-522 -526 530 0
-522 -527 531 0
-523 -525 530 0
-523 -526 531 0
-523 -527 532 0
-524 -525 531 0
-524 -526 532 0
-524 -527 533 0
-19 534 0
-18 534 0
-19 -18 535 0
-17 534 0
-19 -17 535 0
-18 -17 535 0
-19 -18 -17 536 0
-16 537 0
-15 537 0
-16 -15 538 0
-14 537 0
-16 -14 538 0
-15 -14 538 0
-16 -15 -14 539 0
-534 540 0
-535 541 0
-536 542 0
-537 540 0
-538 541 0
-539 542 0
-534 -537 541 0
-534 -538 542 0
-534 -539 543 0
-535 -537 542 0
-535 -538 543 0
-535 -539 544 0
-536 -537 543 0
-536 -538 544 0
-536 -539 545 0
-13 546 0
-25 546 0
-13 -25 547 0
-11 546 0
-13 -11 547 0
-25 -11 547 0
-13 -25 -11 548 0
-10 549 0
-9 549 0
-10 -9 550 0
-8 549 0
-10 -8 550 0
-9 -8 550 0
-10 -9 -8 551 0
-546 552 0
-547 553 0
-548 554 0
-549 552 0
-550 553 0
-551 554 0
-546 -549 553 0
-546 -550 554 0
-546 -551 555 0
-547 -549 554 0
-547 -550 555 0
-547 -551 556 0
-548 -549 555 0
-548 -550 556 0
-548 -551 557 0
-7 558 0
-6 558 0
-7 -6 559 0
-5 558 0
-7 -5 559 0
-6 -5 559 0
-7 -6 -5 560 0
-4 561 0
-3 561 0
-4 -3 562 0
-2 563 0
-1 563 0
-2 -1 564 0
-37 563 0
-2 -37 564 0
-1 -37 564 0
-2 -1 -37 565 0
-561 566 0
-562 567 0
-563 566 0
-564 567 0
-565 568 0
-561 -563 567 0
-561 -564 568 0
-561 -565 569 0
-562 -563 568 0
-562 -564 569 0
-562 -565 570 0
-558 571 0
-559 572 0
-560 573 0
-566 571 0
-567 572 0
-568 573 0
-569 574 0
-570 575 0
-558 -566 572 0
-558 -567 573 0
-558 -568 574 0
-558 -569 575 0
-558 -570 576 0
-559 -566 573 0
-559 -567 574 0
-559 -568 575 0
-559 -569 576 0
-559 -570 577 0
-560 -566 574 0
-560 -567 575 0
-560 -568 576 0
-560 -569 577 0
-560 -570 578 0
-49 579 0
-48 579 0
-49 -48 580 0
-47 579 0
-49 -47 580 0
-48 -47 580 0
-49 -48 -47 581 0
-46 582 0
-45 582 0
-46 -45 583 0
-44 584 0
-43 584 0
-44 -43 585 0
-42 584 0
-44 -42 585 0
-43 -42 585 0
-44 -43 -42 586 0
-582 587 0
-583 588 0
-584 587 0
-585 588 0
-586 589 0
-582 -584 588 0
-582 -585 589 0
-582 -586 590 0
-583 -584 589 0
-583 -585 590 0
-583 -586 591 0
-579 592 0
-580 593 0
-581 594 0
-587 592 0
-588 593 0
-589 594 0
-590 595 0
-591 596 0
-579 -587 593 0
-579 -588 594 0
-579 -589 595 0
-579 -590 596 0
-579 -591 597 0
-580 -587 594 0
-580 -588 595 0
-580 -589 596 0
-580 -590 597 0
-580 -591 598 0
-581 -587 595 0
-581 -588 596 0
-581 -589 597 0
-581 -590 598 0
-581 -591 599 0
-41 600 0
-40 600 0
-41 -40 601 0
-39 600 0
-41 -39 601 0
-40 -39 601 0
-41 -40 -39 602 0
-38 603 0
-50 603 0
-38 -50 604 0
-36 605 0
-35 605 0
-36 -35 606 0
-34 605 0
-36 -34 606 0
-35 -34 606 0
-36 -35 -34 607 0
-603 608 0
-604 609 0
-605 608 0
-606 609 0
-607 610 0
-603 -605 609 0
-603 -606 610 0
-603 -607 611 0
-604 -605 610 0
-604 -606 611 0
-604 -607 612 0
-600 613 0
-601 614 0
-602 615 0
-608 613 0
-609 614 0
-610 615 0
-611 616 0
-612 617 0
-600 -608 614 0
-600 -609 615 0
-600 -610 616 0
-600 -611 617 0
-600 -612 618 0
-601 -608 615 0
-601 -609 616 0
-601 -610 617 0
-601 -611 618 0
-601 -612 619 0
-602 -608 616 0
-602 -609 617 0
-602 -610 618 0
-602 -611 619 0
-602 -612 620 0
-33 621 0
-32 621 0
-33 -32 622 0
-31 621 0
-33 -31 622 0
-32 -31 622 0
-33 -32 -31 623 0
-30 624 0
-29 624 0
-30 -29 625 0
-28 626 0
-27 626 0
-28 -27 627 0
-26 626 0
-28 -26 627 0
-27 -26 627 0
-28 -27 -26 628 0
-624 629 0
-625 630 0
-626 629 0
-627 630 0
-628 631 0
-624 -626 630 0
-624 -627 631 0
-624 -628 632 0
-625 -626 631 0
-625 -627 632 0
-625 -628 633 0
-621 634 0
-622 635 0
-623 636 0
-629 634 0
-630 635 0
-631 636 0
-632 637 0
-633 638 0
-621 -629 635 0
-621 -630 636 0
-621 -631 637 0
-621 -632 638 0
-621 -633 639 0
-622 -629 636 0
-622 -630 637 0
-622 -631 638 0
-622 -632 639 0
-622 -633 640 0
-623 -629 637 0
-623 -630 638 0
-623 -631 639 0
-623 -632 640 0
-623 -633 641 0
-613 642 0
-615 643 0
-617 644 0
-619 645 0
-634 642 0
-636 643 0
-638 644 0
-640 645 0
-613 -634 643 0
-613 -636 644 0
-613 -638 645 0
-613 -640 646 0
-615 -634 644 0
-615 -636 645 0
-615 -638 646 0
-615 -640 647 0
-617 -634 645 0
-617 -636 646 0
-617 -638 647 0
-619 -634 646 0
-619 -636 647 0
-614 648 0
-618 649 0
-635 648 0
-639 649 0
-614 -635 649 0
-614 -639 650 0
-618 -635 650 0
-616 651 0
-620 652 0
-637 651 0
-641 652 0
-616 -637 652 0
-649 653 0
-651 653 0
-649 -651 654 0
-650 655 0
-652 655 0
-650 -652 656 0
-643 657 0
-648 657 0
-643 -648 658 0
-644 659 0
-653 659 0
-644 -653 660 0
-645 661 0
-654 661 0
-645 -654 662 0
-646 663 0
-655 663 0
-646 -655 664 0
-647 665 0
-656 665 0
-647 -656 666 0
-592 667 0
-594 668 0
-596 669 0
-598 670 0
-642 667 0
-658 668 0
-660 669 0
-662 670 0
-664 671 0
-666 672 0
-592 -642 668 0
-592 -658 669 0
-592 -660 670 0
-592 -662 671 0
-592 -664 672 0
-594 -642 669 0
-594 -658 670 0
-594 -660 671 0
-594 -662 672 0
-596 -642 670 0
-596 -658 671 0
-596 -660 672 0
-598 -642 671 0
-598 -658 672 0
-593 673 0
-597 674 0
-657 673 0
-661 674 0
-665 675 0
-593 -657 674 0
-593 -661 675 0
-597 -657 675 0
-595 676 0
-599 677 0
-659 676 0
-663 677 0
-595 -659 677 0
-674 678 0
-676 678 0
-674 -676 679 0
-675 680 0
-677 680 0
-675 -677 681 0
-668 682 0
-673 682 0
-668 -673 683 0
-669 684 0
-678 684 0
-669 -678 685 0
-670 686 0
-679 686 0
-670 -679 687 0
-671 688 0
-680 688 0
-671 -680 689 0
-672 690 0
-681 690 0
-672 -681 691 0
-571 692 0
-573 693 0
-575 694 0
-577 695 0
-667 692 0
-683 693 0
-685 694 0
-687 695 0
-689 696 0
-691 697 0
-571 -667 693 0
-571 -683 694 0
-571 -685 695 0
-571 -687 696 0
-571 -689 697 0
-573 -667 694 0
-573 -683 695 0
-573 -685 696 0
-573 -687 697 0
-575 -667 695 0
-575 -683 696 0
-575 -685 697 0
-577 -667 696 0
-577 -683 697 0
-572 698 0
-576 699 0
-682 698 0
-686 699 0
-690 700 0
-572 -682 699 0
-572 -686 700 0
-576 -682 700 0
-574 701 0
-578 702 0
-684 701 0
-688 702 0
-574 -684 702 0
-699 703 0
-701 703 0
-699 -701 704 0
-700 705 0
-702 705 0
-700 -702 706 0
-693 707 0
-698 707 0
-693 -698 708 0
-694 709 0
-703 709 0
-694 -703 710 0
-695 711 0
-704 711 0
-695 -704 712 0
-696 713 0
-705 713 0
-696 -705 714 0
-697 715 0
-706 715 0
-697 -706 716 0
-552 717 0
-554 718 0
-556 719 0
-692 717 0
-708 718 0
-710 719 0
-712 720 0
-714 721 0
-716 722 0
-552 -692 718 0
-552 -708 719 0
-552 -710 720 0
-552 -712 721 0
-552 -714 722 0
-554 -692 719 0
-554 -708 720 0
-554 -710 721 0
-554 -712 722 0
-556 -692 720 0
-556 -708 721 0
-556 -710 722 0
-553 723 0
-555 724 0
-557 725 0
-707 723 0
-709 724 0
-711 725 0
-713 726 0
-715 727 0
-553 -707 724 0
-553 -709 725 0
-553 -711 726 0
-553 -713 727 0
-555 -707 725 0
-555 -709 726 0
-555 -711 727 0
-557 -707 726 0
-557 -709 727 0
-718 728 0
-723 728 0
-718 -723 729 0
-719 730 0
-724 730 0
-719 -724 731 0
-720 732 0
-725 732 0
-720 -725 733 0
-721 734 0
-726 734 0
-721 -726 735 0
-722 736 0
-727 736 0
-722 -727 737 0
-540 738 0
-542 739 0
-544 740 0
-717 738 0
-729 739 0
-731 740 0
-733 741 0
-735 742 0
-737 743 0
-540 -717 739 0
-540 -729 740 0
-540 -731 741 0
-540 -733 742 0
-540 -735 743 0
-542 -717 740 0
-542 -729 741 0
-542 -731 742 0
-542 -733 743 0
-544 -717 741 0
-544 -729 742 0
-544 -731 743 0
-541 744 0
-543 745 0
-545 746 0
-728 744 0
-730 745 0
-732 746 0
-734 747 0
-736 748 0
-541 -728 745 0
-541 -730 746 0
-541 -732 747 0
-541 -734 748 0
-543 -728 746 0
-543 -730 747 0
-543 -732 748 0
-545 -728 747 0
-545 -730 748 0
-739 749 0
-744 749 0
-739 -744 750 0
-740 751 0
-745 751 0
-740 -745 752 0
-741 753 0
-746 753 0
-741 -746 754 0
-742 755 0
-747 755 0
-742 -747 756 0
-743 757 0
-748 757 0
-743 -748 758 0
-528 759 0
-530 760 0
-532 761 0
-738 759 0
-750 760 0
-752 761 0
-754 762 0
-756 763 0
-758 764 0
-528 -738 760 0
-528 -750 761 0
-528 -752 762 0
-528 -754 763 0
-528 -756 764 0
-530 -738 761 0
-530 -750 762 0
-530 -752 763 0
-530 -754 764 0
-532 -738 762 0
-532 -750 763 0
-532 -752 764 0
-529 765 0
-531 766 0
-533 767 0
-749 765 0
-751 766 0
-753 767 0
-755 768 0
-757 769 0
-529 -749 766 0
-529 -751 767 0
-529 -753 768 0
-529 -755 769 0
-531 -749 767 0
-531 -751 768 0
-531 -753 769 0
-533 -749 768 0
-533 -751 769 0
-760 770 0
-765 770 0
-760 -765 771 0
-761 772 0
-766 772 0
-761 -766 773 0
-762 774 0
-767 774 0
-762 -767 775 0
-763 776 0
-768 776 0
-763 -768 777 0
-764 778 0
-769 778 0
-764 -769 779 0
-779 0
